NAME : berlin52-R-5-0-a.16414.tour
COMMENT : Length = 16414
COMMENT : Found by LKH-3 [Keld Helsgaun] Tue Jul 30 13:14:23 2024
TYPE : TOUR
DIMENSION : 52
TOUR_SECTION
1
36
40
6
4
11
43
8
45
7
30
29
50
23
3
22
34
39
15
33
27
47
12
48
38
37
44
19
41
31
42
2
17
18
10
32
35
5
28
26
52
14
13
51
25
24
46
16
20
21
9
49
-1
EOF
